ilp_joint/output/dripping_ilp.lp
Maximize
  0.00138971212806782 Z_60_0_0 + 0.00623979517941012 Z_60_0_1
   + 0.7829378721577587 Z_60_0_2 + 0.043741083971627 Z_60_0_3
   + 0.00177833842462108 Z_538_2_0 + 0.0168688487129733 Z_538_2_1
   + 0.7800043096451921 Z_538_2_2 + 0.00997693871324432 Z_538_2_3
   + 0.4602366664873075 Z_538_4_0 + 0.0463213870555938 Z_538_4_1
   + 0.0150984905343964 Z_538_4_2 + 0.0213086731689563 Z_538_4_3
   + 0.056414565300088 Z_538_0_0 + 0.018308430543813 Z_538_0_1
   + 0.2653315360281746 Z_538_0_2 + 0.0211582984818847 Z_538_0_3
   + 0.123741222972833 Z_538_3_0 + 0.057787 Z_538_3_1
   + 0.0420495341717207 Z_538_3_2 + 0.1071544146485907 Z_538_3_3
   + 0.0435449229776302 Z_538_6_0 + 0.0216104279755793 Z_538_6_1
   + 0.4476054171506075 Z_538_6_2 + 0.0400993589509559 Z_538_6_3
   + 0.0650933472855728 Z_538_5_0 + 0.0293829650648937 Z_538_5_1
   + 0.1961162874822739 Z_538_5_2 + 0.0353154960240088 Z_538_5_3
   + 0.0435449229776302 Z_538_1_0 + 0.0216104279755793 Z_538_1_1
   + 0.4476054171506075 Z_538_1_2 + 0.0400993589509559 Z_538_1_3
   + 0.00187396408818337 Z_367_0_0 + 0.0079932856679507 Z_367_0_1
   + 0.8021696866687986 Z_367_0_2 + 0.00314468408521341 Z_367_0_3
Subject To
 constraint1_600: Z_60_0_0 + Z_60_0_1 + Z_60_0_2 + Z_60_0_3 <= 1
 constraint1_5382: Z_538_2_0 + Z_538_2_1 + Z_538_2_2 + Z_538_2_3 <= 1
 constraint1_5384: Z_538_4_0 + Z_538_4_1 + Z_538_4_2 + Z_538_4_3 <= 1
 constraint1_5380: Z_538_0_0 + Z_538_0_1 + Z_538_0_2 + Z_538_0_3 <= 1
 constraint1_5383: Z_538_3_0 + Z_538_3_1 + Z_538_3_2 + Z_538_3_3 <= 1
 constraint1_5386: Z_538_6_0 + Z_538_6_1 + Z_538_6_2 + Z_538_6_3 <= 1
 constraint1_5385: Z_538_5_0 + Z_538_5_1 + Z_538_5_2 + Z_538_5_3 <= 1
 constraint1_5381: Z_538_1_0 + Z_538_1_1 + Z_538_1_2 + Z_538_1_3 <= 1
 constraint1_3670: Z_367_0_0 + Z_367_0_1 + Z_367_0_2 + Z_367_0_3 <= 1
 constraint2_600: Z_60_0_0 <= 1
 constraint2_601: Z_60_0_1 <= 1
 constraint2_602: Z_60_0_2 <= 1
 constraint2_603: Z_60_0_3 <= 1
 constraint2_5380: Z_538_2_0 + Z_538_4_0 + Z_538_0_0 + Z_538_3_0
   + Z_538_6_0 + Z_538_5_0 + Z_538_1_0 <= 1
 constraint2_5381: Z_538_2_1 + Z_538_4_1 + Z_538_0_1 + Z_538_3_1
   + Z_538_6_1 + Z_538_5_1 + Z_538_1_1 <= 1
 constraint2_5382: Z_538_2_2 + Z_538_4_2 + Z_538_0_2 + Z_538_3_2
   + Z_538_6_2 + Z_538_5_2 + Z_538_1_2 <= 1
 constraint2_5383: Z_538_2_3 + Z_538_4_3 + Z_538_0_3 + Z_538_3_3
   + Z_538_6_3 + Z_538_5_3 + Z_538_1_3 <= 1
 constraint2_3670: Z_367_0_0 <= 1
 constraint2_3671: Z_367_0_1 <= 1
 constraint2_3672: Z_367_0_2 <= 1
 constraint2_3673: Z_367_0_3 <= 1
Bounds
Binaries
 Z_60_0_0 Z_60_0_1 Z_60_0_2 Z_60_0_3 Z_538_2_0 Z_538_2_1 Z_538_2_2
 Z_538_2_3 Z_538_4_0 Z_538_4_1 Z_538_4_2 Z_538_4_3 Z_538_0_0 Z_538_0_1
 Z_538_0_2 Z_538_0_3 Z_538_3_0 Z_538_3_1 Z_538_3_2 Z_538_3_3 Z_538_6_0
 Z_538_6_1 Z_538_6_2 Z_538_6_3 Z_538_5_0 Z_538_5_1 Z_538_5_2 Z_538_5_3
 Z_538_1_0 Z_538_1_1 Z_538_1_2 Z_538_1_3 Z_367_0_0 Z_367_0_1 Z_367_0_2
 Z_367_0_3
End
