ilp_joint/output/dripping_ilp.mps
NAME dripping_srl_ilp
* Max problem is converted into Min one
ROWS
 N  OBJ
 L  constraint1_280
 L  constraint1_2865
 L  constraint1_2860
 L  constraint1_2863
 L  constraint1_2861
 L  constraint1_2866
 L  constraint1_2862
 L  constraint1_1880
 L  constraint2_280
 L  constraint2_281
 L  constraint2_282
 L  constraint2_283
 L  constraint2_2860
 L  constraint2_2861
 L  constraint2_2862
 L  constraint2_2863
 L  constraint2_1880
 L  constraint2_1881
 L  constraint2_1882
 L  constraint2_1883
COLUMNS
    MARKER    'MARKER'                 'INTORG'
    Z_28_0_0  OBJ       -3.1494541152398792e-04
    Z_28_0_0  constraint1_280  1
    Z_28_0_0  constraint2_280  1
    Z_28_0_1  OBJ       -1.5193572743544348e-03
    Z_28_0_1  constraint1_280  1
    Z_28_0_1  constraint2_281  1
    Z_28_0_2  OBJ       -7.6743259999326574e-01
    Z_28_0_2  constraint1_280  1
    Z_28_0_2  constraint2_282  1
    Z_28_0_3  OBJ       -9.3555119579866678e-03
    Z_28_0_3  constraint1_280  1
    Z_28_0_3  constraint2_283  1
    Z_28_0_4  OBJ       -1.2137758536286929e-01
    Z_28_0_4  constraint1_280  1
    Z_286_5_0  OBJ       -2.0868564748399723e-02
    Z_286_5_0  constraint1_2865  1
    Z_286_5_0  constraint2_2860  1
    Z_286_5_1  OBJ       -5.9395043969110804e-03
    Z_286_5_1  constraint1_2865  1
    Z_286_5_1  constraint2_2861  1
    Z_286_5_2  OBJ       -8.7200200152472263e-02
    Z_286_5_2  constraint1_2865  1
    Z_286_5_2  constraint2_2862  1
    Z_286_5_3  OBJ       -6.8812403424996513e-03
    Z_286_5_3  constraint1_2865  1
    Z_286_5_3  constraint2_2863  1
    Z_286_5_4  OBJ       -7.7911049035971724e-01
    Z_286_5_4  constraint1_2865  1
    Z_286_0_0  OBJ       -9.8934099856073463e-03
    Z_286_0_0  constraint1_2860  1
    Z_286_0_0  constraint2_2860  1
    Z_286_0_1  OBJ       -2.4119049799217794e-03
    Z_286_0_1  constraint1_2860  1
    Z_286_0_1  constraint2_2861  1
    Z_286_0_2  OBJ       -2.3434079085875373e-01
    Z_286_0_2  constraint1_2860  1
    Z_286_0_2  constraint2_2862  1
    Z_286_0_3  OBJ       -3.9587128862520596e-02
    Z_286_0_3  constraint1_2860  1
    Z_286_0_3  constraint2_2863  1
    Z_286_0_4  OBJ       -6.1376676531319663e-01
    Z_286_0_4  constraint1_2860  1
    Z_286_3_0  OBJ       -1.2250707839734273e-01
    Z_286_3_0  constraint1_2863  1
    Z_286_3_0  constraint2_2860  1
    Z_286_3_1  OBJ       -2.0124001715678828e-02
    Z_286_3_1  constraint1_2863  1
    Z_286_3_1  constraint2_2861  1
    Z_286_3_2  OBJ       -1.2805297103459370e-02
    Z_286_3_2  constraint1_2863  1
    Z_286_3_2  constraint2_2862  1
    Z_286_3_3  OBJ       -1.8047399425749466e-02
    Z_286_3_3  constraint1_2863  1
    Z_286_3_3  constraint2_2863  1
    Z_286_3_4  OBJ       -7.2651622335776966e-01
    Z_286_3_4  constraint1_2863  1
    Z_286_1_0  OBJ       -1.4771010119179018e-02
    Z_286_1_0  constraint1_2861  1
    Z_286_1_0  constraint2_2860  1
    Z_286_1_1  OBJ       -6.4584018890069660e-03
    Z_286_1_1  constraint1_2861  1
    Z_286_1_1  constraint2_2861  1
    Z_286_1_2  OBJ       -3.4391571228915518e-01
    Z_286_1_2  constraint1_2861  1
    Z_286_1_2  constraint2_2862  1
    Z_286_1_3  OBJ       -1.6707645507996485e-02
    Z_286_1_3  constraint1_2861  1
    Z_286_1_3  constraint2_2863  1
    Z_286_1_4  OBJ       -5.1814723019466247e-01
    Z_286_1_4  constraint1_2861  1
    Z_286_6_0  OBJ       -1.4771010119179018e-02
    Z_286_6_0  constraint1_2866  1
    Z_286_6_0  constraint2_2860  1
    Z_286_6_1  OBJ       -6.4584018890069660e-03
    Z_286_6_1  constraint1_2866  1
    Z_286_6_1  constraint2_2861  1
    Z_286_6_2  OBJ       -3.4391571228915518e-01
    Z_286_6_2  constraint1_2866  1
    Z_286_6_2  constraint2_2862  1
    Z_286_6_3  OBJ       -1.6707645507996485e-02
    Z_286_6_3  constraint1_2866  1
    Z_286_6_3  constraint2_2863  1
    Z_286_6_4  OBJ       -5.1814723019466247e-01
    Z_286_6_4  constraint1_2866  1
    Z_286_2_0  OBJ       -3.8295607848564002e-04
    Z_286_2_0  constraint1_2862  1
    Z_286_2_0  constraint2_2860  1
    Z_286_2_1  OBJ       -3.3239826994390632e-03
    Z_286_2_1  constraint1_2862  1
    Z_286_2_1  constraint2_2861  1
    Z_286_2_2  OBJ       -6.7128202680187754e-01
    Z_286_2_2  constraint1_2862  1
    Z_286_2_2  constraint2_2862  1
    Z_286_2_3  OBJ       -2.0332914482719920e-03
    Z_286_2_3  constraint1_2862  1
    Z_286_2_3  constraint2_2863  1
    Z_286_2_4  OBJ       -2.2297774297192585e-01
    Z_286_2_4  constraint1_2862  1
    Z_188_0_0  OBJ       -3.3047073428220272e-04
    Z_188_0_0  constraint1_1880  1
    Z_188_0_0  constraint2_1880  1
    Z_188_0_1  OBJ       -1.4232360663781612e-03
    Z_188_0_1  constraint1_1880  1
    Z_188_0_1  constraint2_1881  1
    Z_188_0_2  OBJ       -6.0534157675225886e-01
    Z_188_0_2  constraint1_1880  1
    Z_188_0_2  constraint2_1882  1
    Z_188_0_3  OBJ       -1.8934984005227230e-03
    Z_188_0_3  constraint1_1880  1
    Z_188_0_3  constraint2_1883  1
    Z_188_0_4  OBJ       -2.9101121804655805e-01
    Z_188_0_4  constraint1_1880  1
    MARKER    'MARKER'                 'INTEND'
RHS
    RHS1      constraint1_280  1
    RHS1      constraint1_2865  1
    RHS1      constraint1_2860  1
    RHS1      constraint1_2863  1
    RHS1      constraint1_2861  1
    RHS1      constraint1_2866  1
    RHS1      constraint1_2862  1
    RHS1      constraint1_1880  1
    RHS1      constraint2_280  1
    RHS1      constraint2_281  1
    RHS1      constraint2_282  1
    RHS1      constraint2_283  1
    RHS1      constraint2_2860  1
    RHS1      constraint2_2861  1
    RHS1      constraint2_2862  1
    RHS1      constraint2_2863  1
    RHS1      constraint2_1880  1
    RHS1      constraint2_1881  1
    RHS1      constraint2_1882  1
    RHS1      constraint2_1883  1
BOUNDS
 UP BND1      Z_28_0_0  1
 UP BND1      Z_28_0_1  1
 UP BND1      Z_28_0_2  1
 UP BND1      Z_28_0_3  1
 UP BND1      Z_28_0_4  1
 UP BND1      Z_286_5_0  1
 UP BND1      Z_286_5_1  1
 UP BND1      Z_286_5_2  1
 UP BND1      Z_286_5_3  1
 UP BND1      Z_286_5_4  1
 UP BND1      Z_286_0_0  1
 UP BND1      Z_286_0_1  1
 UP BND1      Z_286_0_2  1
 UP BND1      Z_286_0_3  1
 UP BND1      Z_286_0_4  1
 UP BND1      Z_286_3_0  1
 UP BND1      Z_286_3_1  1
 UP BND1      Z_286_3_2  1
 UP BND1      Z_286_3_3  1
 UP BND1      Z_286_3_4  1
 UP BND1      Z_286_1_0  1
 UP BND1      Z_286_1_1  1
 UP BND1      Z_286_1_2  1
 UP BND1      Z_286_1_3  1
 UP BND1      Z_286_1_4  1
 UP BND1      Z_286_6_0  1
 UP BND1      Z_286_6_1  1
 UP BND1      Z_286_6_2  1
 UP BND1      Z_286_6_3  1
 UP BND1      Z_286_6_4  1
 UP BND1      Z_286_2_0  1
 UP BND1      Z_286_2_1  1
 UP BND1      Z_286_2_2  1
 UP BND1      Z_286_2_3  1
 UP BND1      Z_286_2_4  1
 UP BND1      Z_188_0_0  1
 UP BND1      Z_188_0_1  1
 UP BND1      Z_188_0_2  1
 UP BND1      Z_188_0_3  1
 UP BND1      Z_188_0_4  1
ENDATA
