ilp_joint/output/dripping_ilp.sol
# Solution for model dripping_srl_ilp
# Objective value = 2.9618859146725409e+00
Z_60_0_0 0
Z_60_0_1 0
Z_60_0_2 1
Z_60_0_3 0
Z_538_2_0 0
Z_538_2_1 0
Z_538_2_2 1
Z_538_2_3 0
Z_538_4_0 1
Z_538_4_1 0
Z_538_4_2 0
Z_538_4_3 0
Z_538_0_0 0
Z_538_0_1 0
Z_538_0_2 0
Z_538_0_3 0
Z_538_3_0 0
Z_538_3_1 0
Z_538_3_2 0
Z_538_3_3 1
Z_538_6_0 0
Z_538_6_1 0
Z_538_6_2 0
Z_538_6_3 0
Z_538_5_0 0
Z_538_5_1 1
Z_538_5_2 0
Z_538_5_3 0
Z_538_1_0 0
Z_538_1_1 0
Z_538_1_2 0
Z_538_1_3 0
Z_367_0_0 0
Z_367_0_1 0
Z_367_0_2 1
Z_367_0_3 0
